c description: Random 3-CNF over 17 variables and 72 clauses
c generator: CNFgen (0.9.2)
c copyright: (C) 2012-2022 Massimo Lauria <massimo.lauria@uniroma1.it>
c url: https://massimolauria.net/cnfgen
c command line: cnfgen --output CNF_4.28/17_bit_72_107.cnf randkcnf 3 17 72
c
p cnf 17 72
-5 -9 -12 0
-1 3 10 0
6 -11 -16 0
6 12 -17 0
2 -4 -16 0
-5 13 17 0
3 -5 -14 0
1 -9 15 0
-1 8 -9 0
-1 -14 -16 0
8 -9 -16 0
-1 -7 9 0
3 5 11 0
-9 10 14 0
5 13 -16 0
4 -13 15 0
8 -14 -15 0
-2 3 -8 0
5 -9 16 0
6 -11 14 0
1 -6 13 0
-4 11 -17 0
4 7 -8 0
6 -11 -17 0
-1 6 -16 0
8 -15 -17 0
-5 15 17 0
-7 11 -12 0
-3 13 17 0
8 -14 15 0
-9 10 -12 0
5 -7 -16 0
5 9 13 0
6 13 -14 0
-4 14 15 0
3 -6 10 0
6 15 -16 0
-4 -10 -11 0
1 4 11 0
1 5 15 0
-2 6 13 0
3 7 -14 0
-1 -10 14 0
-2 -5 -8 0
1 3 -9 0
3 -11 17 0
8 -11 17 0
-1 3 7 0
-5 -13 -16 0
7 16 -17 0
9 10 15 0
-1 6 -17 0
-4 -9 12 0
3 10 -16 0
4 -10 -14 0
7 10 15 0
2 -13 14 0
2 9 -10 0
-3 8 16 0
1 3 -11 0
-2 -10 14 0
3 4 -9 0
-12 16 -17 0
1 3 -17 0
4 9 -11 0
-1 2 11 0
-5 -10 -11 0
-3 11 -17 0
-1 -12 -13 0
-4 -13 -14 0
9 11 16 0
4 13 16 0
